% Data file generated from RandomInstances/10_0.65_1.col DIMACS file
size = 10;

chi = 6;

adjacency = [|0,1,1,1,1,1,1,1,1,0,
|1,0,1,1,0,1,0,0,1,0,
|1,1,0,1,1,1,1,1,1,0,
|1,1,1,0,1,1,1,0,0,1,
|1,0,1,1,0,1,1,1,0,1,
|1,1,1,1,1,0,1,0,1,0,
|1,0,1,1,1,1,0,0,0,1,
|1,0,1,0,1,0,0,0,0,0,
|1,1,1,0,0,1,0,0,0,0,
|0,0,0,1,1,0,1,0,0,0,
|];